146 14 70 197 59 116 134 122 181 10 90 168 17 34 84 150 113 39 164 85 2 87 77 72 176 97 52 56 196 55 100 35 78 121 44 60 12 139 186 106 29 49 57 3 74 32 6 11 18 96 111 45 8 24 51 33 117 23 160 25 143 118 26 48 82 62 22 110 1 79 19 41 20 13 178 64 40 36 93 37 5 38 76 154 21 53 135 61 88 50 104 177 28 102 182 0 9 107 15 67 114 103 151 179 195 149 98 89 169 16 94 68 120 4 147 30 157 138 172 193 65 142 141 158 105 75 190 80 71 7 81 112 115 175 184 109 99 166 69 153 131 31 126 101 125 130 148 140 155 129 128 173 132 86 133 83 54 63 174 145 189 144 119 188 47 91 46 42 198 199 108 167 187 73 194 162 123 183 161 180 165 95 152 171 127 163 27 170 192 136 124 137 58 43 156 185 191 92 66 159 

